c Created with the Wolfram Language : www.wolfram.com
c 
p edge 100 530
e 2 8
e 4 8
e 2 9
e 5 10
e 1 14
e 2 14
e 5 14
e 9 15
e 12 15
e 3 16
e 9 16
e 10 16
e 12 16
e 10 17
e 6 18
e 8 18
e 10 18
e 3 19
e 17 19
e 2 20
e 11 20
e 3 21
e 6 21
e 7 21
e 9 21
e 13 21
e 13 22
e 19 22
e 5 23
e 13 23
e 1 24
e 2 24
e 5 24
e 8 24
e 11 24
e 20 24
e 22 24
e 22 25
e 11 26
e 13 27
e 17 27
e 18 27
e 21 27
e 22 27
e 23 27
e 8 28
e 12 28
e 16 28
e 22 28
e 5 30
e 6 30
e 8 30
e 14 30
e 26 30
e 1 31
e 9 31
e 10 31
e 24 31
e 1 32
e 6 32
e 23 32
e 25 32
e 6 34
e 16 34
e 17 34
e 18 34
e 20 34
e 22 34
e 26 34
e 29 34
e 27 35
e 34 35
e 1 36
e 4 36
e 17 36
e 19 36
e 30 36
e 33 36
e 35 36
e 8 37
e 23 38
e 27 38
e 30 38
e 4 40
e 5 40
e 6 40
e 11 40
e 14 40
e 15 40
e 24 40
e 31 40
e 33 40
e 26 41
e 34 41
e 8 42
e 22 42
e 33 42
e 38 42
e 2 43
e 13 43
e 16 43
e 28 43
e 39 43
e 8 44
e 15 44
e 19 44
e 25 44
e 31 44
e 21 45
e 22 45
e 24 45
e 34 45
e 43 45
e 44 45
e 9 46
e 12 46
e 42 46
e 25 47
e 34 47
e 41 47
e 17 48
e 23 48
e 24 48
e 27 48
e 40 48
e 36 49
e 40 49
e 42 49
e 1 50
e 4 50
e 5 50
e 10 50
e 13 50
e 20 50
e 27 50
e 28 50
e 37 50
e 40 50
e 5 51
e 12 51
e 20 51
e 34 51
e 39 51
e 43 51
e 5 52
e 11 52
e 14 52
e 28 52
e 45 52
e 49 52
e 43 53
e 2 54
e 8 54
e 19 54
e 23 54
e 32 54
e 35 54
e 47 54
e 51 54
e 1 55
e 6 55
e 44 55
e 47 55
e 53 55
e 1 56
e 15 56
e 28 56
e 31 56
e 36 56
e 38 56
e 40 56
e 42 56
e 44 56
e 50 56
e 24 57
e 26 57
e 35 57
e 36 57
e 47 57
e 1 58
e 10 58
e 52 58
e 17 59
e 26 59
e 55 59
e 57 59
e 5 60
e 6 60
e 8 60
e 13 60
e 14 60
e 20 60
e 31 60
e 44 60
e 55 60
e 9 61
e 10 61
e 13 61
e 21 61
e 23 61
e 31 61
e 38 61
e 48 61
e 2 62
e 13 62
e 17 62
e 36 62
e 42 62
e 43 62
e 45 62
e 23 63
e 39 63
e 58 63
e 10 64
e 13 64
e 32 64
e 42 64
e 43 64
e 52 64
e 57 64
e 5 65
e 8 65
e 10 65
e 19 65
e 26 65
e 29 65
e 48 65
e 57 65
e 1 66
e 2 66
e 4 66
e 14 66
e 19 66
e 31 66
e 36 66
e 54 66
e 9 67
e 16 67
e 29 67
e 40 67
e 43 67
e 29 68
e 30 68
e 32 68
e 38 68
e 43 68
e 49 68
e 2 70
e 3 70
e 5 70
e 11 70
e 18 70
e 36 70
e 53 70
e 60 70
e 18 71
e 43 71
e 51 71
e 52 71
e 53 71
e 64 71
e 65 71
e 67 71
e 68 71
e 12 72
e 9 73
e 33 73
e 35 73
e 38 73
e 46 73
e 50 73
e 52 73
e 60 73
e 5 74
e 34 74
e 36 74
e 40 74
e 42 74
e 47 74
e 55 74
e 71 74
e 73 74
e 57 75
e 74 75
e 23 76
e 25 76
e 38 76
e 40 76
e 41 76
e 46 76
e 62 76
e 68 76
e 73 76
e 1 77
e 2 77
e 10 77
e 12 77
e 21 77
e 27 77
e 37 77
e 44 77
e 61 77
e 64 77
e 67 77
e 69 77
e 76 77
e 4 78
e 16 78
e 17 78
e 41 78
e 67 78
e 68 78
e 69 78
e 71 78
e 74 78
e 1 79
e 8 79
e 27 79
e 34 79
e 35 79
e 36 79
e 40 79
e 58 79
e 64 79
e 65 79
e 9 80
e 17 80
e 31 80
e 38 80
e 58 80
e 66 80
e 68 80
e 3 81
e 8 81
e 9 81
e 16 81
e 26 81
e 30 81
e 33 81
e 41 81
e 65 81
e 68 81
e 8 82
e 9 82
e 23 82
e 26 82
e 33 82
e 38 82
e 39 82
e 45 82
e 54 82
e 63 82
e 64 82
e 70 82
e 71 82
e 77 82
e 3 83
e 13 83
e 20 83
e 23 83
e 65 83
e 66 83
e 81 83
e 22 84
e 47 84
e 51 84
e 75 84
e 76 84
e 83 84
e 2 85
e 8 85
e 22 85
e 43 85
e 68 85
e 84 85
e 1 86
e 11 86
e 20 86
e 34 86
e 37 86
e 39 86
e 44 86
e 55 86
e 58 86
e 62 86
e 64 86
e 81 86
e 17 87
e 28 87
e 48 87
e 49 87
e 54 87
e 57 87
e 67 87
e 77 87
e 86 87
e 4 88
e 6 88
e 12 88
e 39 88
e 43 88
e 47 88
e 50 88
e 62 88
e 66 88
e 72 88
e 75 88
e 78 88
e 82 88
e 86 88
e 87 88
e 15 89
e 30 89
e 39 89
e 45 89
e 52 89
e 60 89
e 81 89
e 87 89
e 15 90
e 23 90
e 24 90
e 26 90
e 35 90
e 59 90
e 64 90
e 66 90
e 76 90
e 9 91
e 14 91
e 16 91
e 19 91
e 31 91
e 38 91
e 41 91
e 63 91
e 72 91
e 78 91
e 85 91
e 16 92
e 26 92
e 36 92
e 45 92
e 52 92
e 53 92
e 81 92
e 6 93
e 15 93
e 23 93
e 26 93
e 56 93
e 66 93
e 75 93
e 82 93
e 87 93
e 13 94
e 16 94
e 25 94
e 26 94
e 30 94
e 53 94
e 55 94
e 64 94
e 68 94
e 74 94
e 76 94
e 1 95
e 9 95
e 14 95
e 19 95
e 21 95
e 31 95
e 34 95
e 38 95
e 42 95
e 82 95
e 85 95
e 6 96
e 7 96
e 28 96
e 33 96
e 35 96
e 54 96
e 57 96
e 70 96
e 71 96
e 72 96
e 75 96
e 83 96
e 90 96
e 26 97
e 31 97
e 37 97
e 58 97
e 63 97
e 94 97
e 95 97
e 96 97
e 8 98
e 24 98
e 30 98
e 62 98
e 63 98
e 86 98
e 91 98
e 93 98
e 95 98
e 21 99
e 23 99
e 30 99
e 32 99
e 37 99
e 41 99
e 55 99
e 56 99
e 85 99
e 9 100
e 18 100
e 28 100
e 37 100
e 39 100
e 43 100
e 44 100
e 45 100
e 51 100
e 57 100
e 59 100
e 80 100
e 91 100
e 94 100
